2 0 2 0
1 0 1 0
0 0 2 5
5 0 1 8
0 1 0 6
2 1 3 5
1 1 2 8
2 2 5 9
5 1 3 11
3 0 1 11
1 2 4 13
3 1 0 16
4 0 2 13
3 2 2 22
5 2 5 17
2 3 0 21
4 1 1 22
4 2 4 25
5 3 0 30
1 3 5 26
0 2 1 25
3 3 3 27
2 4 1 31
4 3 5 36
1 4 0 40
3 4 4 30
2 5 4 38
0 3 3 31
0 4 5 40
5 4 4 45
4 4 0 50
5 5 2 49
3 5 5 43
1 5 3 50
0 5 4 49
4 5 3 54

